p td 22 111
3 2
5 1
5 4
6 3
6 4
6 2
7 3
7 5
8 4
8 3
8 6
8 7
9 5
9 4
9 2
9 7
10 9
10 2
10 5
10 8
10 7
10 1
11 10
11 9
11 4
11 8
12 10
12 11
12 4
12 3
12 2
13 12
13 1
13 2
13 4
14 12
14 13
14 11
14 9
14 10
15 12
15 8
15 13
15 9
15 6
16 9
16 15
16 5
16 12
16 1
16 4
16 10
17 2
17 16
17 3
17 12
17 9
17 1
17 14
17 7
17 11
18 4
18 1
18 7
19 13
19 7
19 3
19 16
19 8
19 6
19 10
19 15
19 1
19 14
20 7
20 17
20 4
20 11
20 10
20 18
20 19
20 6
20 8
20 16
20 3
20 13
21 4
21 6
21 13
21 9
21 16
21 7
21 20
21 15
21 2
21 14
21 1
21 8
21 5
22 19
22 5
22 18
22 4
22 10
22 11
22 13
22 15
22 14
22 12
22 7
22 20
